data/solutions/recovery/degenerate/moderate/binding/degenerate_moderate_instance4/46.sol
Elapsed time: 0.03
Upper bound: 6184384.0
Planning weighted value: 27517752.0
C[0]=6184384.0
C[1]=6148438.0
C[2]=0.0
y[0]=1
y[1]=1
y[2]=0
y[3]=1
y[4]=0
y[5]=0
y[6]=1
y[7]=1
y[8]=1
y[9]=1
y[10]=1
y[11]=0
y[12]=0
y[13]=1
y[14]=1
y[15]=0
y[16]=0
y[17]=1
y[18]=0
y[19]=1
y[20]=0
y[21]=0
y[22]=1
y[23]=1
y[24]=0
