data/solutions/recovery/degenerate/moderate/binding/degenerate_moderate_instance4/46.log

Log started (V12.6.3.0) Fri Apr 20 23:04:15 2018

New value for default parallel thread count: 1

Problem '/tmp/tmpcnzi5l.pyomo.lp' read.
Read time = 0.00 sec. (0.02 ticks)

Problem name         : /tmp/tmpcnzi5l.pyomo.lp
Objective sense      : Minimize
Variables            :      80  [Nneg: 1,  Binary: 75,  General Integer: 4]
Objective nonzeros   :       1
Linear constraints   :      58  [Less: 28,  Equal: 30]
  Nonzeros           :     976
  RHS nonzeros       :      26

Variables            : Min LB: 0.000000         Max UB: 1.000000       
Objective nonzeros   : Min   : 1.000000         Max   : 1.000000       
Linear constraints   :
  Nonzeros           : Min   : 1.000000         Max   : 1072398.       
  RHS nonzeros       : Min   : 1.000000         Max   : 1.000000       
Tried aggregator 2 times.
MIP Presolve eliminated 46 rows and 61 columns.
MIP Presolve added 1 rows and 1 columns.
Aggregator did 10 substitutions.
Reduced MIP has 3 rows, 10 columns, and 21 nonzeros.
Reduced MIP has 8 binaries, 2 generals, 0 SOSs, and 0 indicators.
Presolve time = 0.00 sec. (0.13 ticks)
Found incumbent of value 8513944.000000 after 0.00 sec. (0.17 ticks)
Probing time = 0.00 sec. (0.00 ticks)
Tried aggregator 1 time.
MIP Presolve eliminated 1 rows and 1 columns.
MIP Presolve added 2 rows and 2 columns.
Reduced MIP has 4 rows, 11 columns, and 24 nonzeros.
Reduced MIP has 8 binaries, 3 generals, 0 SOSs, and 0 indicators.
Presolve time = 0.00 sec. (0.01 ticks)
Probing time = 0.00 sec. (0.00 ticks)
MIP emphasis: balance optimality and feasibility.
MIP search method: dynamic search.
Parallel mode: none, using 1 thread.
Root relaxation solution time = 0.00 sec. (0.01 ticks)

        Nodes                                         Cuts/
   Node  Left     Objective  IInf  Best Integer    Best Bound    ItCnt     Gap

*     0+    0                      8513944.0000  4653403.0000            45.34%
      0     0  6166411.0000     2  8513944.0000  6166411.0000        0   27.57%
*     0+    0                      6304553.0000  6166411.0000             2.19%
      0     0  6166411.0000     3  6304553.0000      Fract: 1        3    2.19%
*     0+    0                      6220382.0000  6166411.0000             0.87%
      0     0  6166411.0000     4  6220382.0000       Cuts: 2        6    0.87%
*     0+    0                      6215727.0000  6166411.0000             0.79%
*     0+    0                      6214374.0000  6166411.0000             0.77%
      0     2  6166411.0000     4  6214374.0000  6166411.0000        6    0.77%
Elapsed time = 0.00 sec. (0.37 ticks, tree = 0.01 MB, solutions = 5)
*     4     3      integral     0  6213392.0000  6166411.0000       12    0.76%
*    10+    1                      6184384.0000  6166411.0000             0.29%

Lift and project cuts applied:  1
Gomory fractional cuts applied:  1

Root node processing (before b&c):
  Real time             =    0.00 sec. (0.38 ticks)
Sequential b&c:
  Real time             =    0.00 sec. (0.07 ticks)
                          ------------
Total (root+branch&cut) =    0.00 sec. (0.44 ticks)

Solution pool: 7 solutions saved.

MIP - Integer optimal solution:  Objective =  6.1843840000e+06
Solution time =    0.00 sec.  Iterations = 19  Nodes = 18
Deterministic time = 0.44 ticks  (155.56 ticks/sec)


Incumbent solution written to file '/tmp/tmppcbg2H.cplex.sol'.
